p cnf 117 98
-1 -2 16 97 -98 -99 -102 -106 -107 -108 -109 -110 -111 -112 -113 -114 -115 -116 -117 0 
-1 -3 37 39 50 56 74 83 96 97 -98 -99 -102 -106 -107 -108 -109 -110 -111 -112 -113 -114 -115 -116 -117 0 
-4 25 29 66 -5 98 -97 -99 -102 -106 -107 -108 -109 -110 -111 -112 -113 -114 -115 -116 -117 0 
-6 10 17 26 30 32 34 99 -97 -98 -102 -106 -107 -108 -109 -110 -111 -112 -113 -114 -115 -116 -117 0 
-7 48 68 69 70 78 82 84 85 89 -8 99 -97 -98 -102 -106 -107 -108 -109 -110 -111 -112 -113 -114 -115 -116 -117 0 
-9 11 38 41 44 47 60 63 67 90 99 -97 -98 -102 -106 -107 -108 -109 -110 -111 -112 -113 -114 -115 -116 -117 0 
-10 6 17 26 30 32 34 100 -105 0 
-10 6 17 26 30 32 34 101 0 
-1 102 -97 -98 -99 -106 -107 -108 -109 -110 -111 -112 -113 -114 -115 -116 -117 0 
-11 9 38 41 44 47 60 63 67 90 -5 98 -97 -99 -102 -106 -107 -108 -109 -110 -111 -112 -113 -114 -115 -116 -117 0 
-12 103 -97 -98 -99 -102 -106 -107 -108 -109 -110 -111 -112 -113 -114 -115 -116 -117 0 
-13 24 65 76 103 -97 -98 -99 -102 -106 -107 -108 -109 -110 -111 -112 -113 -114 -115 -116 -117 0 
-14 15 58 103 -97 -98 -99 -102 -106 -107 -108 -109 -110 -111 -112 -113 -114 -115 -116 -117 0 
-15 14 58 104 105 0 
-16 2 -17 6 10 26 30 32 34 -18 99 -97 -98 -102 -106 -107 -108 -109 -110 -111 -112 -113 -114 -115 -116 -117 0 
-19 104 105 0 
-20 103 -97 -98 -99 -102 -106 -107 -108 -109 -110 -111 -112 -113 -114 -115 -116 -117 0 
-21 94 95 -22 100 -105 0 
-23 103 -97 -98 -99 -102 -106 -107 -108 -109 -110 -111 -112 -113 -114 -115 -116 -117 0 
-24 13 65 76 103 -97 -98 -99 -102 -106 -107 -108 -109 -110 -111 -112 -113 -114 -115 -116 -117 0 
-25 4 29 66 -26 6 10 17 30 32 34 106 -97 -98 -99 -102 -107 -108 -109 -110 -111 -112 -113 -114 -115 -116 -117 0 
-27 53 54 99 -97 -98 -102 -106 -107 -108 -109 -110 -111 -112 -113 -114 -115 -116 -117 0 
-28 79 80 107 -97 -98 -99 -102 -106 -108 -109 -110 -111 -112 -113 -114 -115 -116 -117 0 
-29 4 25 66 107 -97 -98 -99 -102 -106 -108 -109 -110 -111 -112 -113 -114 -115 -116 -117 0 
-1 -30 6 10 17 26 32 34 108 -97 -98 -99 -102 -106 -107 -109 -110 -111 -112 -113 -114 -115 -116 -117 0 
-31 33 64 71 77 -32 6 10 17 26 30 34 108 -97 -98 -99 -102 -106 -107 -109 -110 -111 -112 -113 -114 -115 -116 -117 0 
-33 31 64 71 77 -5 98 -97 -99 -102 -106 -107 -108 -109 -110 -111 -112 -113 -114 -115 -116 -117 0 
-1 -34 6 10 17 26 30 32 99 -97 -98 -102 -106 -107 -108 -109 -110 -111 -112 -113 -114 -115 -116 -117 0 
-31 33 64 71 77 -6 10 17 26 30 32 34 99 -97 -98 -102 -106 -107 -108 -109 -110 -111 -112 -113 -114 -115 -116 -117 0 
-35 57 72 -5 100 -105 0 
-36 45 62 75 -5 100 -105 0 
-37 3 39 50 56 74 83 96 100 -105 0 
-38 9 11 41 44 47 60 63 67 90 100 -105 0 
-39 3 37 50 56 74 83 96 100 -105 0 
-40 59 103 -97 -98 -99 -102 -106 -107 -108 -109 -110 -111 -112 -113 -114 -115 -116 -117 0 
-41 9 11 38 44 47 60 63 67 90 109 -97 -98 -99 -102 -106 -107 -108 -110 -111 -112 -113 -114 -115 -116 -117 0 
-42 103 -97 -98 -99 -102 -106 -107 -108 -109 -110 -111 -112 -113 -114 -115 -116 -117 0 
-43 103 -97 -98 -99 -102 -106 -107 -108 -109 -110 -111 -112 -113 -114 -115 -116 -117 0 
-37 3 39 50 56 74 83 96 109 -97 -98 -99 -102 -106 -107 -108 -110 -111 -112 -113 -114 -115 -116 -117 0 
-44 9 11 38 41 47 60 63 67 90 110 -97 -98 -99 -102 -106 -107 -108 -109 -111 -112 -113 -114 -115 -116 -117 0 
-45 36 62 75 103 -97 -98 -99 -102 -106 -107 -108 -109 -110 -111 -112 -113 -114 -115 -116 -117 0 
-46 -47 9 11 38 41 44 60 63 67 90 100 -105 0 
-21 94 95 -42 100 -105 0 
-24 13 65 76 -48 7 68 69 70 78 82 84 85 89 103 -97 -98 -99 -102 -106 -107 -108 -109 -110 -111 -112 -113 -114 -115 -116 -117 0 
-46 100 -105 0 
-49 -50 3 37 39 56 74 83 96 107 -97 -98 -99 -102 -106 -108 -109 -110 -111 -112 -113 -114 -115 -116 -117 0 
-51 91 107 -97 -98 -99 -102 -106 -108 -109 -110 -111 -112 -113 -114 -115 -116 -117 0 
-52 81 107 -97 -98 -99 -102 -106 -108 -109 -110 -111 -112 -113 -114 -115 -116 -117 0 
-53 27 54 111 -97 -98 -99 -102 -106 -107 -108 -109 -110 -112 -113 -114 -115 -116 -117 0 
-54 27 53 112 -97 -98 -99 -102 -106 -107 -108 -109 -110 -111 -113 -114 -115 -116 -117 0 
-55 103 -97 -98 -99 -102 -106 -107 -108 -109 -110 -111 -112 -113 -114 -115 -116 -117 0 
-56 3 37 39 50 74 83 96 -22 -23 100 -105 0 
-21 94 95 -57 35 72 -18 100 -105 0 
-58 14 15 103 -97 -98 -99 -102 -106 -107 -108 -109 -110 -111 -112 -113 -114 -115 -116 -117 0 
-59 40 -60 9 11 38 41 44 47 63 67 90 113 -97 -98 -99 -102 -106 -107 -108 -109 -110 -111 -112 -114 -115 -116 -117 0 
-61 103 -97 -98 -99 -102 -106 -107 -108 -109 -110 -111 -112 -113 -114 -115 -116 -117 0 
-62 36 45 75 -63 9 11 38 41 44 47 60 67 90 113 -97 -98 -99 -102 -106 -107 -108 -109 -110 -111 -112 -114 -115 -116 -117 0 
-64 31 33 71 77 -65 13 24 76 100 -105 0 
-35 57 72 100 -105 0 
-66 4 25 29 -67 9 11 38 41 44 47 60 63 90 114 -97 -98 -99 -102 -106 -107 -108 -109 -110 -111 -112 -113 -115 -116 -117 0 
-68 7 48 69 70 78 82 84 85 89 114 -97 -98 -99 -102 -106 -107 -108 -109 -110 -111 -112 -113 -115 -116 -117 0 
-69 7 48 68 70 78 82 84 85 89 115 -97 -98 -99 -102 -106 -107 -108 -109 -110 -111 -112 -113 -114 -116 -117 0 
-49 -67 9 11 38 41 44 47 60 63 90 114 -97 -98 -99 -102 -106 -107 -108 -109 -110 -111 -112 -113 -115 -116 -117 0 
-70 7 48 68 69 78 82 84 85 89 116 -97 -98 -99 -102 -106 -107 -108 -109 -110 -111 -112 -113 -114 -115 -117 0 
-71 31 33 64 77 -61 103 -97 -98 -99 -102 -106 -107 -108 -109 -110 -111 -112 -113 -114 -115 -116 -117 0 
-72 35 57 -42 103 -97 -98 -99 -102 -106 -107 -108 -109 -110 -111 -112 -113 -114 -115 -116 -117 0 
-73 100 -105 0 
-74 3 37 39 50 56 83 96 -75 36 45 62 117 -97 -98 -99 -102 -106 -107 -108 -109 -110 -111 -112 -113 -114 -115 -116 0 
-74 3 37 39 50 56 83 96 -76 13 24 65 117 -97 -98 -99 -102 -106 -107 -108 -109 -110 -111 -112 -113 -114 -115 -116 0 
-77 31 33 64 71 -78 7 48 68 69 70 82 84 85 89 116 -97 -98 -99 -102 -106 -107 -108 -109 -110 -111 -112 -113 -114 -115 -117 0 
-77 31 33 64 71 -70 7 48 68 69 78 82 84 85 89 116 -97 -98 -99 -102 -106 -107 -108 -109 -110 -111 -112 -113 -114 -115 -117 0 
-21 94 95 -79 28 80 100 -105 0 
-80 28 79 100 -105 0 
-81 52 103 -97 -98 -99 -102 -106 -107 -108 -109 -110 -111 -112 -113 -114 -115 -116 -117 0 
-77 31 33 64 71 -82 7 48 68 69 70 78 84 85 89 114 -97 -98 -99 -102 -106 -107 -108 -109 -110 -111 -112 -113 -115 -116 -117 0 
-77 31 33 64 71 -68 7 48 69 70 78 82 84 85 89 114 -97 -98 -99 -102 -106 -107 -108 -109 -110 -111 -112 -113 -115 -116 -117 0 
-83 3 37 39 50 56 74 96 -84 7 48 68 69 70 78 82 85 89 106 -97 -98 -99 -102 -107 -108 -109 -110 -111 -112 -113 -114 -115 -116 -117 0 
-83 3 37 39 50 56 74 96 -85 7 48 68 69 70 78 82 84 89 106 -97 -98 -99 -102 -107 -108 -109 -110 -111 -112 -113 -114 -115 -116 -117 0 
-21 94 95 -86 100 -105 0 
-87 103 -97 -98 -99 -102 -106 -107 -108 -109 -110 -111 -112 -113 -114 -115 -116 -117 0 
-88 -89 7 48 68 69 70 78 82 84 85 106 -97 -98 -99 -102 -107 -108 -109 -110 -111 -112 -113 -114 -115 -116 -117 0 
-83 3 37 39 50 56 74 96 -90 9 11 38 41 44 47 60 63 67 106 -97 -98 -99 -102 -107 -108 -109 -110 -111 -112 -113 -114 -115 -116 -117 0 
-91 51 -75 36 45 62 98 -97 -99 -102 -106 -107 -108 -109 -110 -111 -112 -113 -114 -115 -116 -117 0 
-92 98 -97 -99 -102 -106 -107 -108 -109 -110 -111 -112 -113 -114 -115 -116 -117 0 
-79 28 80 98 -97 -99 -102 -106 -107 -108 -109 -110 -111 -112 -113 -114 -115 -116 -117 0 
-37 3 39 50 56 74 83 96 -86 -23 100 -105 0 
-37 3 39 50 56 74 83 96 -22 -23 100 -105 0 
-56 3 37 39 50 74 83 96 -93 100 -105 0 
-94 21 95 100 -105 0 
-37 3 39 50 56 74 83 96 -22 -23 100 -105 0 
-21 94 95 -45 36 62 75 100 -105 0 
-95 21 94 98 -97 -99 -102 -106 -107 -108 -109 -110 -111 -112 -113 -114 -115 -116 -117 0 
-21 94 95 -57 35 72 100 -105 0 
-35 57 72 -96 3 37 39 50 56 74 83 -5 100 -105 0 
-21 94 95 -57 35 72 100 -105 0 
-91 51 103 -97 -98 -99 -102 -106 -107 -108 -109 -110 -111 -112 -113 -114 -115 -116 -117 0 
-94 21 95 107 -97 -98 -99 -102 -106 -108 -109 -110 -111 -112 -113 -114 -115 -116 -117 0 
-31 33 64 71 77 102 -97 -98 -99 -106 -107 -108 -109 -110 -111 -112 -113 -114 -115 -116 -117 0 
